
Gurobi 9.5.2 (win64) logging started Fri Oct  6 15:10:19 2023

Set parameter LogFile to value "./ccga_results/2023-10-06 15-10-18-081/MSP_TimeStampConvert_gurobi_log.txt"
Set parameter TimeLimit to value 7200

Gurobi 9.5.2 (win64) logging started Fri Oct  6 15:10:19 2023

Set parameter LogFile to value "./ccga_results/2023-10-06 15-10-18-081/MSP_TimeStampConvert_gurobi_log.txt"
Set parameter TimeLimit to value 7200
Gurobi Optimizer version 9.5.2 build v9.5.2rc0 (win64)
Thread count: 10 physical cores, 20 logical processors, using up to 20 threads
Optimize a model with 584 rows, 441 columns and 1438 nonzeros
Model fingerprint: 0xa7155132
Variable types: 9 continuous, 432 integer (432 binary)
Coefficient statistics:
  Matrix range     [1e+00, 1e+00]
  Objective range  [1e+00, 1e+00]
  Bounds range     [1e+03, 1e+03]
  RHS range        [1e+00, 1e+00]
Found heuristic solution: objective 8000.0000000

Explored 0 nodes (0 simplex iterations) in 0.00 seconds (0.00 work units)
Thread count was 1 (of 20 available processors)

Solution count 1: 8000 

Optimal solution found (tolerance 1.00e-02)
Best objective 8.000000000000e+03, best bound 8.000000000000e+03, gap 0.0000%

User-callback calls 21, time in user-callback 0.00 sec
Set parameter TimeLimit to value 7199
Gurobi Optimizer version 9.5.2 build v9.5.2rc0 (win64)
Thread count: 10 physical cores, 20 logical processors, using up to 20 threads
Optimize a model with 1837 rows, 801 columns and 5653 nonzeros
Model fingerprint: 0xdf073e48
Variable types: 353 continuous, 448 integer (448 binary)
Coefficient statistics:
  Matrix range     [2e-01, 8e+02]
  Objective range  [1e+00, 1e+00]
  Bounds range     [1e+03, 1e+03]
  RHS range        [1e+00, 6e+06]

MIP start from previous solve did not produce a new incumbent solution

Presolve removed 207 rows and 79 columns
Presolve time: 0.01s
Presolved: 1630 rows, 722 columns, 5313 nonzeros
Variable types: 326 continuous, 396 integer (396 binary)
Found heuristic solution: objective 7280.0000000

Root relaxation: objective 7.950000e+03, 419 iterations, 0.00 seconds (0.00 work units)

    Nodes    |    Current Node    |     Objective Bounds      |     Work
 Expl Unexpl |  Obj  Depth IntInf | Incumbent    BestBd   Gap | It/Node Time

H    0     0                    7950.0000000 7950.00000  0.00%     -    0s
     0     0 7950.00000    0    4 7950.00000 7950.00000  0.00%     -    0s

Explored 1 nodes (589 simplex iterations) in 0.04 seconds (0.05 work units)
Thread count was 20 (of 20 available processors)

Solution count 2: 7950 7280 

Optimal solution found (tolerance 1.00e-02)
Best objective 7.950000000000e+03, best bound 7.950000000000e+03, gap 0.0000%

User-callback calls 455, time in user-callback 0.00 sec
Set parameter TimeLimit to value 7197
Gurobi Optimizer version 9.5.2 build v9.5.2rc0 (win64)
Thread count: 10 physical cores, 20 logical processors, using up to 20 threads
Optimize a model with 3090 rows, 1161 columns and 9870 nonzeros
Model fingerprint: 0x4ae18faa
Variable types: 697 continuous, 464 integer (464 binary)
Coefficient statistics:
  Matrix range     [2e-01, 8e+02]
  Objective range  [1e+00, 1e+00]
  Bounds range     [1e+03, 1e+03]
  RHS range        [1e+00, 6e+06]

MIP start from previous solve did not produce a new incumbent solution

Presolve removed 334 rows and 117 columns
Presolve time: 0.02s
Presolved: 2756 rows, 1044 columns, 9285 nonzeros
Variable types: 648 continuous, 396 integer (396 binary)

Root relaxation: objective 7.900000e+03, 952 iterations, 0.01 seconds (0.01 work units)

    Nodes    |    Current Node    |     Objective Bounds      |     Work
 Expl Unexpl |  Obj  Depth IntInf | Incumbent    BestBd   Gap | It/Node Time

     0     0 7900.00000    0    3          - 7900.00000      -     -    0s
H    0     0                    7900.0000000 7900.00000  0.00%     -    0s

Explored 1 nodes (1261 simplex iterations) in 0.09 seconds (0.11 work units)
Thread count was 20 (of 20 available processors)

Solution count 1: 7900 

Optimal solution found (tolerance 1.00e-02)
Best objective 7.900000000000e+03, best bound 7.900000000000e+03, gap 0.0000%

User-callback calls 505, time in user-callback 0.00 sec
Gurobi Optimizer version 9.5.2 build v9.5.2rc0 (win64)
Thread count: 10 physical cores, 20 logical processors, using up to 20 threads
Optimize a model with 4343 rows, 1521 columns and 14087 nonzeros
Model fingerprint: 0xd518c21e
Variable types: 1041 continuous, 480 integer (480 binary)
Coefficient statistics:
  Matrix range     [2e-01, 8e+02]
  Objective range  [1e+00, 1e+00]
  Bounds range     [1e+03, 1e+03]
  RHS range        [1e+00, 6e+06]

MIP start from previous solve did not produce a new incumbent solution

Presolve removed 461 rows and 157 columns
Presolve time: 0.03s
Presolved: 3882 rows, 1364 columns, 13250 nonzeros
Variable types: 968 continuous, 396 integer (396 binary)

Root relaxation: objective 7.900000e+03, 2160 iterations, 0.04 seconds (0.06 work units)

    Nodes    |    Current Node    |     Objective Bounds      |     Work
 Expl Unexpl |  Obj  Depth IntInf | Incumbent    BestBd   Gap | It/Node Time

     0     0 7900.00000    0    3          - 7900.00000      -     -    0s
H    0     0                    7895.0000000 7900.00000  0.06%     -    0s

Cutting planes:
  MIR: 1
  Flow cover: 2

Explored 1 nodes (2922 simplex iterations) in 0.18 seconds (0.24 work units)
Thread count was 20 (of 20 available processors)

Solution count 1: 7895 

Optimal solution found (tolerance 1.00e-02)
Best objective 7.895000000000e+03, best bound 7.900000000000e+03, gap 0.0633%

User-callback calls 526, time in user-callback 0.00 sec
Gurobi Optimizer version 9.5.2 build v9.5.2rc0 (win64)
Thread count: 10 physical cores, 20 logical processors, using up to 20 threads
Optimize a model with 5596 rows, 1881 columns and 18304 nonzeros
Model fingerprint: 0x025c7b43
Variable types: 1385 continuous, 496 integer (496 binary)
Coefficient statistics:
  Matrix range     [2e-01, 8e+02]
  Objective range  [1e+00, 1e+00]
  Bounds range     [1e+03, 1e+03]
  RHS range        [1e+00, 6e+06]

MIP start from previous solve did not produce a new incumbent solution

Presolve removed 585 rows and 194 columns
Presolve time: 0.05s
Presolved: 5011 rows, 1687 columns, 16722 nonzeros
Variable types: 1288 continuous, 399 integer (396 binary)

Root relaxation: objective 6.658673e+03, 3104 iterations, 0.05 seconds (0.06 work units)

    Nodes    |    Current Node    |     Objective Bounds      |     Work
 Expl Unexpl |  Obj  Depth IntInf | Incumbent    BestBd   Gap | It/Node Time

     0     0 6658.67317    0   15          - 6658.67317      -     -    0s
H    0     0                    6462.1259073 6658.67317  3.04%     -    0s
H    0     0                    6484.6259073 6654.92991  2.63%     -    0s
     0     0 6654.92991    0   21 6484.62591 6654.92991  2.63%     -    0s
     0     0 6654.92991    0   32 6484.62591 6654.92991  2.63%     -    0s
     0     0 6647.20871    0   32 6484.62591 6647.20871  2.51%     -    0s
H    0     0                    6565.0000000 6647.20871  1.25%     -    0s
     0     0 6647.20871    0   37 6565.00000 6647.20871  1.25%     -    0s
     0     0 6647.20871    0   23 6565.00000 6647.20871  1.25%     -    0s
     0     0 6647.20871    0   26 6565.00000 6647.20871  1.25%     -    0s
     0     0 6643.16490    0   30 6565.00000 6643.16490  1.19%     -    0s
     0     0 6643.16490    0   32 6565.00000 6643.16490  1.19%     -    0s
     0     0 6643.16490    0   47 6565.00000 6643.16490  1.19%     -    0s
     0     0 6643.16490    0   25 6565.00000 6643.16490  1.19%     -    0s
     0     2 6643.16490    0   22 6565.00000 6643.16490  1.19%     -    0s
H   38    37                    6595.5555556 6643.16490  0.72%   151    0s

Cutting planes:
  Gomory: 5
  Implied bound: 3
  MIR: 42
  Flow cover: 123
  Relax-and-lift: 2

Explored 45 nodes (14174 simplex iterations) in 1.00 seconds (1.19 work units)
Thread count was 20 (of 20 available processors)

Solution count 4: 6595.56 6565 6484.63 6462.13 

Optimal solution found (tolerance 1.00e-02)
Best objective 6.595555555556e+03, best bound 6.643164900990e+03, gap 0.7218%

User-callback calls 814, time in user-callback 0.00 sec
Set parameter TimeLimit to value 7195
Gurobi Optimizer version 9.5.2 build v9.5.2rc0 (win64)
Thread count: 10 physical cores, 20 logical processors, using up to 20 threads
Optimize a model with 6849 rows, 2241 columns and 22521 nonzeros
Model fingerprint: 0x5e37a0eb
Variable types: 1729 continuous, 512 integer (512 binary)
Coefficient statistics:
  Matrix range     [2e-01, 8e+02]
  Objective range  [1e+00, 1e+00]
  Bounds range     [1e+03, 1e+03]
  RHS range        [1e+00, 6e+06]

MIP start from previous solve did not produce a new incumbent solution

Presolve removed 712 rows and 234 columns
Presolve time: 0.06s
Presolved: 6137 rows, 2007 columns, 20526 nonzeros
Variable types: 1608 continuous, 399 integer (396 binary)

Root relaxation: objective 5.825046e+03, 3917 iterations, 0.07 seconds (0.07 work units)

    Nodes    |    Current Node    |     Objective Bounds      |     Work
 Expl Unexpl |  Obj  Depth IntInf | Incumbent    BestBd   Gap | It/Node Time

     0     0 5825.04606    0   20          - 5825.04606      -     -    0s
H    0     0                    5621.1111111 5825.04606  3.63%     -    0s
     0     0 5800.02300    0   40 5621.11111 5800.02300  3.18%     -    0s
     0     0 5800.02300    0   40 5621.11111 5800.02300  3.18%     -    0s
     0     0 5800.02300    0   29 5621.11111 5800.02300  3.18%     -    0s
     0     0 5800.02300    0   34 5621.11111 5800.02300  3.18%     -    0s
H    0     0                    5630.0000000 5800.02300  3.02%     -    0s
     0     0 5800.02300    0   16 5630.00000 5800.02300  3.02%     -    0s
H    0     0                    5690.0000000 5800.02300  1.93%     -    0s
     0     0 5800.02300    0   28 5690.00000 5800.02300  1.93%     -    0s
     0     0 5799.56954    0   28 5690.00000 5799.56954  1.93%     -    0s
H    0     0                    5737.1259073 5799.50609  1.09%     -    0s
     0     0 5799.50609    0   32 5737.12591 5799.50609  1.09%     -    0s
     0     0 5799.50609    0   32 5737.12591 5799.50609  1.09%     -    0s
     0     0 5798.85530    0   34 5737.12591 5798.85530  1.08%     -    0s
     0     0 5798.77393    0   43 5737.12591 5798.77393  1.07%     -    0s
     0     0 5798.77393    0   45 5737.12591 5798.77393  1.07%     -    0s
     0     0 5798.76581    0   53 5737.12591 5798.76581  1.07%     -    0s
     0     0 5798.70644    0   51 5737.12591 5798.70644  1.07%     -    0s
     0     0 5798.65056    0   50 5737.12591 5798.65056  1.07%     -    0s
     0     0 5798.65056    0   53 5737.12591 5798.65056  1.07%     -    0s
     0     0 5798.26297    0   42 5737.12591 5798.26297  1.07%     -    0s
     0     0 5798.26297    0   45 5737.12591 5798.26297  1.07%     -    1s
     0     0 5798.16539    0   33 5737.12591 5798.16539  1.06%     -    1s
     0     0 5798.16539    0   39 5737.12591 5798.16539  1.06%     -    1s
     0     0 5798.15153    0   42 5737.12591 5798.15153  1.06%     -    1s
     0     0 5798.15153    0   34 5737.12591 5798.15153  1.06%     -    1s
     0     0 5798.10491    0   31 5737.12591 5798.10491  1.06%     -    1s
     0     0 5798.10491    0   26 5737.12591 5798.10491  1.06%     -    1s
     0     2 5798.10491    0   26 5737.12591 5798.10491  1.06%     -    1s

Cutting planes:
  Gomory: 20
  Projected implied bound: 3
  MIR: 81
  Flow cover: 240
  Relax-and-lift: 6

Explored 1773 nodes (118248 simplex iterations) in 4.86 seconds (5.24 work units)
Thread count was 20 (of 20 available processors)

Solution count 4: 5737.13 5690 5630 5621.11 

Optimal solution found (tolerance 1.00e-02)
Best objective 5.737125907314e+03, best bound 5.794454247030e+03, gap 0.9993%

User-callback calls 5062, time in user-callback 0.00 sec
Set parameter TimeLimit to value 7190
Gurobi Optimizer version 9.5.2 build v9.5.2rc0 (win64)
Thread count: 10 physical cores, 20 logical processors, using up to 20 threads
Optimize a model with 8102 rows, 2601 columns and 26738 nonzeros
Model fingerprint: 0x8a2fadf9
Variable types: 2073 continuous, 528 integer (528 binary)
Coefficient statistics:
  Matrix range     [2e-01, 8e+02]
  Objective range  [1e+00, 1e+00]
  Bounds range     [1e+03, 1e+03]
  RHS range        [1e+00, 6e+06]

MIP start from previous solve did not produce a new incumbent solution

Presolve removed 839 rows and 274 columns
Presolve time: 0.06s
Presolved: 7263 rows, 2327 columns, 24332 nonzeros
Variable types: 1928 continuous, 399 integer (396 binary)

Root relaxation: objective 5.186738e+03, 4690 iterations, 0.09 seconds (0.09 work units)

    Nodes    |    Current Node    |     Objective Bounds      |     Work
 Expl Unexpl |  Obj  Depth IntInf | Incumbent    BestBd   Gap | It/Node Time

     0     0 5186.73837    0   36          - 5186.73837      -     -    0s
H    0     0                    4617.8122825 5186.73837  12.3%     -    0s
     0     0 5161.71530    0   64 4617.81228 5161.71530  11.8%     -    0s
     0     0 5161.71530    0   64 4617.81228 5161.71530  11.8%     -    0s
     0     0 5159.98037    0   44 4617.81228 5159.98037  11.7%     -    0s
     0     0 5159.98037    0   38 4617.81228 5159.98037  11.7%     -    0s
     0     0 5145.49571    0   78 4617.81228 5145.49571  11.4%     -    0s
     0     0 5138.04635    0   74 4617.81228 5138.04635  11.3%     -    0s
H    0     0                    4707.2606736 5138.03055  9.15%     -    0s
     0     0 5138.03055    0   73 4707.26067 5138.03055  9.15%     -    0s
     0     0 5138.03055    0   73 4707.26067 5138.03055  9.15%     -    0s
     0     0 5120.00212    0   59 4707.26067 5120.00212  8.77%     -    1s
H    0     0                    4927.4531012 5106.86154  3.64%     -    1s
     0     0 5106.86154    0   57 4927.45310 5106.86154  3.64%     -    1s
     0     0 5102.04508    0   56 4927.45310 5102.04508  3.54%     -    1s
     0     0 5102.04508    0   50 4927.45310 5102.04508  3.54%     -    1s
     0     0 5093.98308    0   62 4927.45310 5093.98308  3.38%     -    1s
     0     0 5093.97037    0   59 4927.45310 5093.97037  3.38%     -    1s
     0     0 5092.62983    0   61 4927.45310 5092.62983  3.35%     -    1s
     0     0 5076.50499    0   55 4927.45310 5076.50499  3.02%     -    1s
     0     0 5076.49081    0   53 4927.45310 5076.49081  3.02%     -    1s
     0     0 5035.23636    0   55 4927.45310 5035.23636  2.19%     -    1s
     0     0 5035.19364    0   61 4927.45310 5035.19364  2.19%     -    1s
     0     0 5035.19364    0   58 4927.45310 5035.19364  2.19%     -    1s
     0     0 5035.19364    0   49 4927.45310 5035.19364  2.19%     -    1s
     0     0 5035.19364    0   49 4927.45310 5035.19364  2.19%     -    1s
     0     0 5032.37088    0   52 4927.45310 5032.37088  2.13%     -    1s
     0     0 5032.37088    0   52 4927.45310 5032.37088  2.13%     -    1s
     0     0 5032.37088    0   52 4927.45310 5032.37088  2.13%     -    1s
     0     0 5032.37088    0   52 4927.45310 5032.37088  2.13%     -    1s
     0     0 5032.37088    0   31 4927.45310 5032.37088  2.13%     -    1s
     0     0 5032.37088    0   31 4927.45310 5032.37088  2.13%     -    1s
     0     0 5032.37088    0   31 4927.45310 5032.37088  2.13%     -    1s
     0     0 5032.37088    0   30 4927.45310 5032.37088  2.13%     -    2s
     0     2 5032.37088    0   30 4927.45310 5032.37088  2.13%     -    2s
H   33    36                    4928.2631579 5032.37088  2.11%   210    2s
H  133   117                    4954.3031579 5032.37088  1.58%   142    2s
H  312   237                    4959.3031579 5032.37088  1.47%   112    2s
H  618   419                    4995.3880669 5032.37088  0.74%  89.0    5s

Cutting planes:
  Gomory: 7
  Cover: 1
  MIR: 82
  Flow cover: 403
  Relax-and-lift: 14

Explored 629 nodes (70542 simplex iterations) in 5.71 seconds (7.83 work units)
Thread count was 20 (of 20 available processors)

Solution count 7: 4995.39 4959.3 4954.3 ... 4617.81

Optimal solution found (tolerance 1.00e-02)
Best objective 4.995388066943e+03, best bound 5.032370877416e+03, gap 0.7403%

User-callback calls 3345, time in user-callback 0.00 sec
Set parameter TimeLimit to value 7184
Gurobi Optimizer version 9.5.2 build v9.5.2rc0 (win64)
Thread count: 10 physical cores, 20 logical processors, using up to 20 threads
Optimize a model with 9355 rows, 2961 columns and 30955 nonzeros
Model fingerprint: 0x3cdb8b1a
Variable types: 2417 continuous, 544 integer (544 binary)
Coefficient statistics:
  Matrix range     [2e-01, 8e+02]
  Objective range  [1e+00, 1e+00]
  Bounds range     [1e+03, 1e+03]
  RHS range        [1e+00, 6e+06]

MIP start from previous solve produced solution with objective 4245.39 (0.05s)
Loaded MIP start from previous solve with objective 4245.39

Presolve removed 966 rows and 314 columns
Presolve time: 0.08s
Presolved: 8389 rows, 2647 columns, 28139 nonzeros
Variable types: 2248 continuous, 399 integer (396 binary)

Root relaxation: objective 5.030833e+03, 6061 iterations, 0.16 seconds (0.18 work units)

    Nodes    |    Current Node    |     Objective Bounds      |     Work
 Expl Unexpl |  Obj  Depth IntInf | Incumbent    BestBd   Gap | It/Node Time

     0     0 5030.83263    0   48 4245.38807 5030.83263  18.5%     -    0s
     0     0 5008.61268    0   62 4245.38807 5008.61268  18.0%     -    0s
     0     0 5000.46876    0   55 4245.38807 5000.46876  17.8%     -    0s
     0     0 5000.46876    0   55 4245.38807 5000.46876  17.8%     -    0s
     0     0 5000.46876    0   66 4245.38807 5000.46876  17.8%     -    1s
H    0     0                    4539.1807035 4972.74819  9.55%     -    1s
     0     0 4972.74819    0   59 4539.18070 4972.74819  9.55%     -    1s
     0     0 4971.17142    0   58 4539.18070 4971.17142  9.52%     -    1s
     0     0 4971.17142    0   58 4539.18070 4971.17142  9.52%     -    1s
     0     0 4920.53318    0   61 4539.18070 4920.53318  8.40%     -    1s
     0     0 4917.19917    0   68 4539.18070 4917.19917  8.33%     -    1s
     0     0 4915.54230    0   68 4539.18070 4915.54230  8.29%     -    1s
     0     0 4915.54230    0   68 4539.18070 4915.54230  8.29%     -    1s
     0     0 4901.94383    0   65 4539.18070 4901.94383  7.99%     -    1s
     0     0 4896.01903    0   64 4539.18070 4896.01903  7.86%     -    1s
     0     0 4895.42468    0   65 4539.18070 4895.42468  7.85%     -    1s
     0     0 4895.42468    0   65 4539.18070 4895.42468  7.85%     -    1s
H    0     0                    4610.0000000 4895.42468  6.19%     -    1s
     0     0 4869.21802    0   77 4610.00000 4869.21802  5.62%     -    1s
     0     0 4860.44073    0   71 4610.00000 4860.44073  5.43%     -    1s
     0     0 4860.33126    0   86 4610.00000 4860.33126  5.43%     -    1s
     0     0 4860.33126    0   74 4610.00000 4860.33126  5.43%     -    1s
     0     0 4848.36042    0   63 4610.00000 4848.36042  5.17%     -    1s
     0     0 4848.30689    0   60 4610.00000 4848.30689  5.17%     -    1s
     0     0 4848.30689    0   60 4610.00000 4848.30689  5.17%     -    2s
     0     0 4833.97916    0   63 4610.00000 4833.97916  4.86%     -    2s
     0     0 4833.93695    0   66 4610.00000 4833.93695  4.86%     -    2s
     0     0 4822.56627    0   60 4610.00000 4822.56627  4.61%     -    2s
     0     0 4821.83583    0   60 4610.00000 4821.83583  4.60%     -    2s
     0     0 4821.83583    0   60 4610.00000 4821.83583  4.60%     -    2s
     0     0 4809.45788    0   52 4610.00000 4809.45788  4.33%     -    2s
     0     0 4809.45071    0   52 4610.00000 4809.45071  4.33%     -    2s
     0     0 4805.77382    0   46 4610.00000 4805.77382  4.25%     -    2s
     0     0 4805.77382    0   49 4610.00000 4805.77382  4.25%     -    2s
     0     0 4805.77382    0   49 4610.00000 4805.77382  4.25%     -    2s
     0     0 4805.77382    0   52 4610.00000 4805.77382  4.25%     -    2s
H    0     0                    4639.2162591 4805.77382  3.59%     -    2s
     0     0 4805.77382    0   38 4639.21626 4805.77382  3.59%     -    2s
     0     0 4805.77382    0   46 4639.21626 4805.77382  3.59%     -    2s
     0     0 4805.77382    0   38 4639.21626 4805.77382  3.59%     -    2s
     0     0 4805.77382    0   37 4639.21626 4805.77382  3.59%     -    2s
     0     2 4805.77382    0   37 4639.21626 4805.77382  3.59%     -    3s
   453   333 4803.36453   14   42 4639.21626 4805.77382  3.59%   130    7s
H  454   333                    4698.1659073 4805.77382  2.29%   130    7s
H 1261   545                    4703.1659073 4805.77382  2.18%   110   11s
  1669   652 4720.96370   40   29 4703.16591 4805.77382  2.18%   107   15s
  1701   674 4802.30623   18   42 4703.16591 4802.30623  2.11%   105   20s
  1731   695 4726.00181   71   52 4703.16591 4802.30623  2.11%   124   25s
  1766   719 4789.36663   22   16 4703.16591 4801.91908  2.10%   137   30s
H 1932   762                    4714.8617017 4801.91908  1.85%   135   31s
H 2347   872                    4714.8617348 4801.91908  1.85%   129   35s
H 2350   838                    4734.8617017 4801.91908  1.42%   129   35s
H 2469   804                    4735.6309324 4801.91908  1.40%   129   38s
  3487  1137 4779.32642   43   26 4735.63093 4801.91908  1.40%   128   40s
  7733  4086     cutoff   63      4735.63093 4797.81568  1.31%   128   45s
 11569  6532 4796.28476   51   29 4735.63093 4797.22813  1.30%   130   50s
 15757  8704 4782.40438   67   23 4735.63093 4796.08999  1.28%   132   55s
H15762  8704                    4735.6309656 4796.08999  1.28%   132   55s
 17641 10194 4737.85537   86    4 4735.63097 4795.58259  1.27%   133   60s
 20659 12063 4774.93123   71   22 4735.63097 4794.29815  1.24%   133   65s
 23412 13462 4748.21545   73   22 4735.63097 4793.79184  1.23%   132   70s
 26174 14784 4747.52970   69   17 4735.63097 4792.95755  1.21%   133   75s
 27872 15433 4755.29448   79   19 4735.63097 4792.02428  1.19%   134   80s
 29786 16337 4779.09918   82   30 4735.63097 4791.20872  1.17%   135   85s
 32092 17403 4745.46299   56   23 4735.63097 4790.03223  1.15%   135   92s
 33218 17404 4777.99199   81   37 4735.63097 4789.53969  1.14%   135  125s
 33233 17414 4750.59808   83   33 4735.63097 4789.53969  1.14%   135  130s
 33240 17419 4765.10566   69   35 4735.63097 4789.53969  1.14%   135  135s
 33247 17424 infeasible   32      4735.63097 4789.53969  1.14%   136  140s
 33926 17643 4786.77776   84   17 4735.63097 4789.53969  1.14%   136  146s
 34680 18036 4769.61317   44   21 4735.63097 4789.53969  1.14%   136  150s
 37150 18854 4789.53969   65   22 4735.63097 4789.53969  1.14%   137  155s
 40603 19847 4748.75102   58   20 4735.63097 4789.53969  1.14%   138  160s
 44398 21010 4741.28808  105    5 4735.63097 4789.53969  1.14%   137  165s
 47842 22041 4789.53969   73   17 4735.63097 4789.53969  1.14%   138  171s
 50500 22460 4776.79405   67   15 4735.63097 4789.53969  1.14%   138  175s
 52430 22942 4750.64456   63   19 4735.63097 4789.53969  1.14%   139  180s
 54923 23450 4746.02752   47   12 4735.63097 4789.35338  1.13%   139  186s
 56642 23929 4786.56275   54   23 4735.63097 4789.16677  1.13%   139  191s
 58767 24357 4737.67609   63   25 4735.63097 4788.26764  1.11%   140  196s
 60760 24768 4767.60752   71   20 4735.63097 4787.42880  1.09%   140  203s
 61986 24893 4743.92265   86    3 4735.63097 4787.37613  1.09%   140  206s
 63072 25196 4747.26341   87   13 4735.63097 4787.36899  1.09%   139  210s
 65382 25506 4759.91642   60   23 4735.63097 4786.39530  1.07%   139  218s
 66459 25920 4780.69836   69   36 4735.63097 4785.93744  1.06%   139  223s
 67809 26050 4774.40324   67   32 4735.63097 4785.55211  1.05%   138  227s
 68965 26120 4751.27751   77   12 4735.63097 4785.55148  1.05%   138  231s
 69912 26277     cutoff   68      4735.63097 4785.37403  1.05%   138  235s
 71964 26432 4783.74524   84   14 4735.63097 4784.77071  1.04%   139  244s
 73053 26629 4738.77106   85    3 4735.63097 4784.49060  1.03%   139  249s
 74255 26701 4757.56150   70   28 4735.63097 4783.97474  1.02%   139  253s
 75314 26992 4763.71278   80   24 4735.63097 4783.40226  1.01%   139  259s
 76520 27234 4757.12727   60   27 4735.63097 4783.32260  1.01%   139  264s

Cutting planes:
  Gomory: 67
  Implied bound: 10
  Projected implied bound: 25
  MIR: 404
  Flow cover: 1192
  RLT: 8
  Relax-and-lift: 11

Explored 77668 nodes (10776854 simplex iterations) in 264.36 seconds (229.79 work units)
Thread count was 20 (of 20 available processors)

Solution count 10: 4735.63 4735.63 4734.86 ... 4539.18

Optimal solution found (tolerance 1.00e-02)
Best objective 4.735630932440e+03, best bound 4.782962269337e+03, gap 0.9995%

User-callback calls 179632, time in user-callback 0.06 sec
